MINIMIZE
+ 379.0 r0 + 662.0 r1 + 887.0 r2 + 38.0 r3 + 51.0 r4 + 442.0 r5 + 921.0 r6
+ 657.0 r7 + 997.0 r8 + 776.0 r9 + 456.0 r10 + 851.0 r11 + 461.0 r12 + 595.0 r13
+ 471.0 r14 + 689.0 r15 + 263.0 r16 + 113.0 r17 + 332.0 r18 + 176.0 r19
+ 236.0 r20 + 224.0 r21 + 165.0 r22 + 178.0 r23 + 73.0 r24 + 823.0 r25
+ 95.0 r26 + 865.0 r27 + 260.0 r28 + 977.0 r29 + 544.0 r30 + 101.0 r31
+ 791.0 r32 + 896.0 r33 + 780.0 r34 + 224.0 r35 + 340.0 r36 + 623.0 r37
+ 893.0 r38 + 640.0 r39 + 593.0 r40 + 405.0 r41 + 400.0 r42 + 695.0 r43
+ 416.0 r44 + 662.0 r45 + 646.0 r46 + 230.0 r47 + 548.0 r48 + 499.0 r49
+ 220.0 r50 + 286.0 r51 + 519.0 r52 + 701.0 r53 + 531.0 r54 + 370.0 r55
+ 454.0 r56 + 143.0 r57 + 780.0 r58 + 749.0 r59 + 486.0 r60 + 562.0 r61
+ 468.0 r62 + 174.0 r63 + 428.0 r64 + 611.0 r65 + 668.0 r66 + 511.0 r67
+ 421.0 r68 + 156.0 r69 + 220.0 r70 + 677.0 r71 + 235.0 r72 + 730.0 r73
+ 46.0 r74 + 353.0 r75 + 902.0 r76 + 99.0 r77 + 788.0 r78 + 888.0 r79
+ 382.0 r80 + 869.0 r81 + 920.0 r82 + 840.0 r83 + 944.0 r84 + 75.0 r85
+ 563.0 r86 + 597.0 r87 + 948.0 r88 + 684.0 r89 + 163.0 r90 + 501.0 r91
+ 713.0 r92 + 959.0 r93 + 224.0 r94 + 930.0 r95 + 172.0 r96 + 609.0 r97
+ 294.0 r98 + 758.0 r99 + 981.0 r100 + 679.0 r101 + 382.0 r102 + 650.0 r103
+ 790.0 r104 + 98.0 r105 + 995.0 r106 + 606.0 r107 + 343.0 r108 + 838.0 r109
+ 985.0 r110 + 216.0 r111 + 117.0 r112 + 616.0 r113 + 390.0 r114 + 42.0 r115
+ 171.0 r116 + 77.0 r117 + 461.0 r118 + 584.0 r119 + 890.0 r120 + 387.0 r121
+ 62.0 r122 + 247.0 r123 + 333.0 r124 + 195.0 r125 + 620.0 r126 + 766.0 r127
+ 846.0 r128 + 876.0 r129 + 833.0 r130 + 513.0 r131 + 648.0 r132 + 14.0 r133
+ 301.0 r134 + 129.0 r135 + 64.0 r136 + 42.0 r137 + 284.0 r138 + 922.0 r139
+ 99.0 r140 + 999.0 r141 + 768.0 r142 + 456.0 r143 + 45.0 r144 + 323.0 r145
+ 27.0 r146 + 782.0 r147 + 794.0 r148 + 623.0 r149 + 864.0 r150 + 745.0 r151
+ 557.0 r152 + 379.0 r153 + 733.0 r154 + 798.0 r155 + 676.0 r156 + 484.0 r157
+ 906.0 r158 + 768.0 r159 + 210.0 r160 + 589.0 r161 + 901.0 r162 + 7.0 r163
+ 985.0 r164 + 173.0 r165 + 332.0 r166 + 372.0 r167 + 801.0 r168 + 286.0 r169
+ 385.0 r170 + 458.0 r171 + 470.0 r172 + 892.0 r173 + 102.0 r174 + 538.0 r175
+ 394.0 r176 + 757.0 r177 + 664.0 r178 + 637.0 r179 + 346.0 r180 + 820.0 r181
+ 847.0 r182 + 181.0 r183 + 160.0 r184 + 978.0 r185 + 867.0 r186 + 654.0 r187
+ 9.0 r188 + 229.0 r189 + 765.0 r190 + 709.0 r191 + 960.0 r192 + 109.0 r193
+ 550.0 r194 + 164.0 r195 + 494.0 r196 + 355.0 r197 + 270.0 r198 + 323.0 r199
+ 682.0 r200 + 740.0 r201 + 211.0 r202 + 56.0 r203 + 691.0 r204 + 12.0 r205
+ 392.0 r206 + 78.0 r207 + 328.0 r208 + 876.0 r209 + 572.0 r210 + 873.0 r211
+ 297.0 r212 + 959.0 r213 + 924.0 r214 + 681.0 r215 + 849.0 r216 + 685.0 r217
+ 597.0 r218 + r219 + 536.0 r220 + 19.0 r221 + 321.0 r222 + 49.0 r223
+ 730.0 r224 + 988.0 r225 + 269.0 r226 + 592.0 r227 + 614.0 r228 + 946.0 r229
+ 348.0 r230 + 615.0 r231 + 326.0 r232 + 500.0 r233 + 111.0 r234 + 246.0 r235
+ 935.0 r236 + 41.0 r237 + 479.0 r238 + 380.0 r239 + 952.0 r240 + 824.0 r241
+ 459.0 r242 + 442.0 r243 + 55.0 r244 + 520.0 r245 + 45.0 r246 + 720.0 r247
+ 712.0 r248 + 193.0 r249 + 489.0 r250 + 715.0 r251 + 399.0 r252 + 630.0 r253
+ 133.0 r254 + 937.0 r255 + 92.0 r256 + 962.0 r257 + 986.0 r258 + 587.0 r259
+ 721.0 r260 + 519.0 r261 + 234.0 r262 + 568.0 r263 + 289.0 r264 + 850.0 r265
+ 871.0 r266 + 248.0 r267 + 313.0 r268 + 851.0 r269 + 641.0 r270 + 437.0 r271
+ 305.0 r272 + 932.0 r273 + 472.0 r274 + 984.0 r275 + 965.0 r276 + 171.0 r277
+ 598.0 r278 + 462.0 r279 + 774.0 r280 + 380.0 r281 + 548.0 r282 + 357.0 r283
+ 679.0 r284 + 28.0 r285 + 199.0 r286 + 207.0 r287 + 555.0 r288 + 958.0 r289
+ 65.0 r290 + 133.0 r291 + 130.0 r292 + 837.0 r293 + 35.0 r294 + 188.0 r295
+ 65.0 r296 + 264.0 r297 + 716.0 r298 + 967.0 r299 + 873.0 r300 + 499.0 r301
+ 594.0 r302 + 927.0 r303 + 365.0 r304 + 719.0 r305 + 194.0 r306 + 827.0 r307
+ 309.0 r308 + 767.0 r309 + 409.0 r310 + 759.0 r311 + 996.0 r312 + 311.0 r313
+ 219.0 r314 + 176.0 r315 + 392.0 r316 + 363.0 r317 + 954.0 r318 + 383.0 r319
+ 566.0 r320 + 88.0 r321 + 310.0 r322 + 902.0 r323 + 91.0 r324 + 847.0 r325
+ 296.0 r326 + 170.0 r327 + 85.0 r328 + 401.0 r329 + 307.0 r330 + 997.0 r331
+ 602.0 r332 + 231.0 r333 + 494.0 r334 + 217.0 r335 + 49.0 r336 + 892.0 r337
+ 645.0 r338 + 986.0 r339 + 309.0 r340 + 350.0 r341 + 741.0 r342 + 148.0 r343
+ 280.0 r344 + 240.0 r345 + 380.0 r346 + 111.0 r347 + 493.0 r348 + 975.0 r349
+ 270.0 r350 + 675.0 r351 + 510.0 r352 + 653.0 r353 + 959.0 r354 + 252.0 r355
+ 794.0 r356 + 685.0 r357 + 1000.0 r358 + 898.0 r359 + 717.0 r360 + 107.0 r361
+ 743.0 r362 + 617.0 r363 + 423.0 r364 + 480.0 r365 + 930.0 r366 + 361.0 r367
+ 208.0 r368 + 344.0 r369 + 286.0 r370 + 164.0 r371 + 121.0 r372 + 150.0 r373
+ 295.0 r374 + 857.0 r375 + 462.0 r376 + 608.0 r377 + 351.0 r378 + 784.0 r379
+ 873.0 r380 + 392.0 r381 + 459.0 r382 + 982.0 r383 + 708.0 r384 + 139.0 r385
+ 689.0 r386 + 230.0 r387 + 365.0 r388 + 677.0 r389 + 564.0 r390 + 441.0 r391
+ 267.0 r392 + 419.0 r393 + 561.0 r394 + 797.0 r395 + 196.0 r396 + 867.0 r397
+ 932.0 r398 + 101.0 r399 + 635.0 r400 + 158.0 r401 + 10.0 r402 + 751.0 r403
+ 842.0 r404 + 585.0 r405 + 209.0 r406 + 797.0 r407 + 317.0 r408 + 43.0 r409
+ 886.0 r410 + 509.0 r411 + 363.0 r412 + 327.0 r413 + 266.0 r414 + 888.0 r415
+ 420.0 r416 + 223.0 r417 + 616.0 r418 + 570.0 r419 + 868.0 r420 + 332.0 r421
+ 847.0 r422 + 555.0 r423 + 980.0 r424 + 557.0 r425 + 736.0 r426 + 192.0 r427
+ 720.0 r428 + 200.0 r429 + 966.0 r430 + 866.0 r431 + 56.0 r432 + 603.0 r433
+ 153.0 r434 + 824.0 r435 + 503.0 r436 + 260.0 r437 + 59.0 r438 + 572.0 r439
+ 558.0 r440 + 361.0 r441 + 177.0 r442 + 285.0 r443 + 730.0 r444 + 682.0 r445
+ 878.0 r446 + 666.0 r447 + 842.0 r448 + 767.0 r449 + 292.0 r450 + 693.0 r451
+ 304.0 r452 + 349.0 r453 + 142.0 r454 + 687.0 r455 + 37.0 r456 + 931.0 r457
+ 678.0 r458 + 145.0 r459 + 730.0 r460 + 475.0 r461 + 936.0 r462 + 773.0 r463
+ 137.0 r464 + 134.0 r465 + 485.0 r466 + 149.0 r467 + 75.0 r468 + 967.0 r469
+ 858.0 r470 + 468.0 r471 + 835.0 r472 + 566.0 r473 + 857.0 r474 + 798.0 r475
+ 677.0 r476 + 547.0 r477 + 916.0 r478 + 277.0 r479 + 108.0 r480 + 822.0 r481
+ 707.0 r482 + 707.0 r483 + 613.0 r484 + 616.0 r485 + 182.0 r486 + 967.0 r487
+ 555.0 r488 + 140.0 r489 + 237.0 r490 + 688.0 r491 + 901.0 r492 + 874.0 r493
+ 183.0 r494
SUBJECT TO
+ r0 + x1 + x2 + x11 >= 1.0
+ r1 + x1 + x3 + x12 >= 1.0
+ r2 + x2 + x3 + x20 >= 1.0
+ r3 + x11 + x12 + x20 >= 1.0
+ r4 + x1 + x4 + x13 >= 1.0
+ r5 + x2 + x4 + x21 >= 1.0
+ r6 + x11 + x13 + x21 >= 1.0
+ r7 + x3 + x4 + x28 >= 1.0
+ r8 + x12 + x13 + x28 >= 1.0
+ r9 + x20 + x21 + x28 >= 1.0
+ r10 + x1 + x5 + x14 >= 1.0
+ r11 + x2 + x5 + x22 >= 1.0
+ r12 + x11 + x14 + x22 >= 1.0
+ r13 + x3 + x5 + x29 >= 1.0
+ r14 + x12 + x14 + x29 >= 1.0
+ r15 + x20 + x22 + x29 >= 1.0
+ r16 + x4 + x5 + x35 >= 1.0
+ r17 + x13 + x14 + x35 >= 1.0
+ r18 + x21 + x22 + x35 >= 1.0
+ r19 + x28 + x29 + x35 >= 1.0
+ r20 + x1 + x6 + x15 >= 1.0
+ r21 + x2 + x6 + x23 >= 1.0
+ r22 + x11 + x15 + x23 >= 1.0
+ r23 + x3 + x6 + x30 >= 1.0
+ r24 + x12 + x15 + x30 >= 1.0
+ r25 + x20 + x23 + x30 >= 1.0
+ r26 + x4 + x6 + x36 >= 1.0
+ r27 + x13 + x15 + x36 >= 1.0
+ r28 + x21 + x23 + x36 >= 1.0
+ r29 + x28 + x30 + x36 >= 1.0
+ r30 + x5 + x6 + x41 >= 1.0
+ r31 + x14 + x15 + x41 >= 1.0
+ r32 + x22 + x23 + x41 >= 1.0
+ r33 + x29 + x30 + x41 >= 1.0
+ r34 + x35 + x36 + x41 >= 1.0
+ r35 + x1 + x7 + x16 >= 1.0
+ r36 + x2 + x7 + x24 >= 1.0
+ r37 + x11 + x16 + x24 >= 1.0
+ r38 + x3 + x7 + x31 >= 1.0
+ r39 + x12 + x16 + x31 >= 1.0
+ r40 + x20 + x24 + x31 >= 1.0
+ r41 + x4 + x7 + x37 >= 1.0
+ r42 + x13 + x16 + x37 >= 1.0
+ r43 + x21 + x24 + x37 >= 1.0
+ r44 + x28 + x31 + x37 >= 1.0
+ r45 + x5 + x7 + x42 >= 1.0
+ r46 + x14 + x16 + x42 >= 1.0
+ r47 + x22 + x24 + x42 >= 1.0
+ r48 + x29 + x31 + x42 >= 1.0
+ r49 + x35 + x37 + x42 >= 1.0
+ r50 + x6 + x7 + x46 >= 1.0
+ r51 + x15 + x16 + x46 >= 1.0
+ r52 + x23 + x24 + x46 >= 1.0
+ r53 + x30 + x31 + x46 >= 1.0
+ r54 + x36 + x37 + x46 >= 1.0
+ r55 + x41 + x42 + x46 >= 1.0
+ r56 + x1 + x8 + x17 >= 1.0
+ r57 + x2 + x8 + x25 >= 1.0
+ r58 + x11 + x17 + x25 >= 1.0
+ r59 + x3 + x8 + x32 >= 1.0
+ r60 + x12 + x17 + x32 >= 1.0
+ r61 + x20 + x25 + x32 >= 1.0
+ r62 + x4 + x8 + x38 >= 1.0
+ r63 + x13 + x17 + x38 >= 1.0
+ r64 + x21 + x25 + x38 >= 1.0
+ r65 + x28 + x32 + x38 >= 1.0
+ r66 + x5 + x8 + x43 >= 1.0
+ r67 + x14 + x17 + x43 >= 1.0
+ r68 + x22 + x25 + x43 >= 1.0
+ r69 + x29 + x32 + x43 >= 1.0
+ r70 + x35 + x38 + x43 >= 1.0
+ r71 + x6 + x8 + x47 >= 1.0
+ r72 + x15 + x17 + x47 >= 1.0
+ r73 + x23 + x25 + x47 >= 1.0
+ r74 + x30 + x32 + x47 >= 1.0
+ r75 + x36 + x38 + x47 >= 1.0
+ r76 + x41 + x43 + x47 >= 1.0
+ r77 + x7 + x8 + x50 >= 1.0
+ r78 + x16 + x17 + x50 >= 1.0
+ r79 + x24 + x25 + x50 >= 1.0
+ r80 + x31 + x32 + x50 >= 1.0
+ r81 + x37 + x38 + x50 >= 1.0
+ r82 + x42 + x43 + x50 >= 1.0
+ r83 + x46 + x47 + x50 >= 1.0
+ r84 + x1 + x9 + x18 >= 1.0
+ r85 + x2 + x9 + x26 >= 1.0
+ r86 + x11 + x18 + x26 >= 1.0
+ r87 + x3 + x9 + x33 >= 1.0
+ r88 + x12 + x18 + x33 >= 1.0
+ r89 + x20 + x26 + x33 >= 1.0
+ r90 + x4 + x9 + x39 >= 1.0
+ r91 + x13 + x18 + x39 >= 1.0
+ r92 + x21 + x26 + x39 >= 1.0
+ r93 + x28 + x33 + x39 >= 1.0
+ r94 + x5 + x9 + x44 >= 1.0
+ r95 + x14 + x18 + x44 >= 1.0
+ r96 + x22 + x26 + x44 >= 1.0
+ r97 + x29 + x33 + x44 >= 1.0
+ r98 + x35 + x39 + x44 >= 1.0
+ r99 + x6 + x9 + x48 >= 1.0
+ r100 + x15 + x18 + x48 >= 1.0
+ r101 + x23 + x26 + x48 >= 1.0
+ r102 + x30 + x33 + x48 >= 1.0
+ r103 + x36 + x39 + x48 >= 1.0
+ r104 + x41 + x44 + x48 >= 1.0
+ r105 + x7 + x9 + x51 >= 1.0
+ r106 + x16 + x18 + x51 >= 1.0
+ r107 + x24 + x26 + x51 >= 1.0
+ r108 + x31 + x33 + x51 >= 1.0
+ r109 + x37 + x39 + x51 >= 1.0
+ r110 + x42 + x44 + x51 >= 1.0
+ r111 + x46 + x48 + x51 >= 1.0
+ r112 + x8 + x9 + x53 >= 1.0
+ r113 + x17 + x18 + x53 >= 1.0
+ r114 + x25 + x26 + x53 >= 1.0
+ r115 + x32 + x33 + x53 >= 1.0
+ r116 + x38 + x39 + x53 >= 1.0
+ r117 + x43 + x44 + x53 >= 1.0
+ r118 + x47 + x48 + x53 >= 1.0
+ r119 + x50 + x51 + x53 >= 1.0
+ r120 + x1 + x10 + x19 >= 1.0
+ r121 + x2 + x10 + x27 >= 1.0
+ r122 + x11 + x19 + x27 >= 1.0
+ r123 + x3 + x10 + x34 >= 1.0
+ r124 + x12 + x19 + x34 >= 1.0
+ r125 + x20 + x27 + x34 >= 1.0
+ r126 + x4 + x10 + x40 >= 1.0
+ r127 + x13 + x19 + x40 >= 1.0
+ r128 + x21 + x27 + x40 >= 1.0
+ r129 + x28 + x34 + x40 >= 1.0
+ r130 + x5 + x10 + x45 >= 1.0
+ r131 + x14 + x19 + x45 >= 1.0
+ r132 + x22 + x27 + x45 >= 1.0
+ r133 + x29 + x34 + x45 >= 1.0
+ r134 + x35 + x40 + x45 >= 1.0
+ r135 + x6 + x10 + x49 >= 1.0
+ r136 + x15 + x19 + x49 >= 1.0
+ r137 + x23 + x27 + x49 >= 1.0
+ r138 + x30 + x34 + x49 >= 1.0
+ r139 + x36 + x40 + x49 >= 1.0
+ r140 + x41 + x45 + x49 >= 1.0
+ r141 + x7 + x10 + x52 >= 1.0
+ r142 + x16 + x19 + x52 >= 1.0
+ r143 + x24 + x27 + x52 >= 1.0
+ r144 + x31 + x34 + x52 >= 1.0
+ r145 + x37 + x40 + x52 >= 1.0
+ r146 + x42 + x45 + x52 >= 1.0
+ r147 + x46 + x49 + x52 >= 1.0
+ r148 + x8 + x10 + x54 >= 1.0
+ r149 + x17 + x19 + x54 >= 1.0
+ r150 + x25 + x27 + x54 >= 1.0
+ r151 + x32 + x34 + x54 >= 1.0
+ r152 + x38 + x40 + x54 >= 1.0
+ r153 + x43 + x45 + x54 >= 1.0
+ r154 + x47 + x49 + x54 >= 1.0
+ r155 + x50 + x52 + x54 >= 1.0
+ r156 + x9 + x10 + x55 >= 1.0
+ r157 + x18 + x19 + x55 >= 1.0
+ r158 + x26 + x27 + x55 >= 1.0
+ r159 + x33 + x34 + x55 >= 1.0
+ r160 + x39 + x40 + x55 >= 1.0
+ r161 + x44 + x45 + x55 >= 1.0
+ r162 + x48 + x49 + x55 >= 1.0
+ r163 + x51 + x52 + x55 >= 1.0
+ r164 + x53 + x54 + x55 >= 1.0
+ r165 - x1 - x2 - x3 - x11 - x12 - x20 >= -5.0
+ r166 - x1 - x2 - x4 - x11 - x13 - x21 >= -5.0
+ r167 - x1 - x3 - x4 - x12 - x13 - x28 >= -5.0
+ r168 - x2 - x3 - x4 - x20 - x21 - x28 >= -5.0
+ r169 - x11 - x12 - x13 - x20 - x21 - x28 >= -5.0
+ r170 - x1 - x2 - x5 - x11 - x14 - x22 >= -5.0
+ r171 - x1 - x3 - x5 - x12 - x14 - x29 >= -5.0
+ r172 - x2 - x3 - x5 - x20 - x22 - x29 >= -5.0
+ r173 - x11 - x12 - x14 - x20 - x22 - x29 >= -5.0
+ r174 - x1 - x4 - x5 - x13 - x14 - x35 >= -5.0
+ r175 - x2 - x4 - x5 - x21 - x22 - x35 >= -5.0
+ r176 - x11 - x13 - x14 - x21 - x22 - x35 >= -5.0
+ r177 - x3 - x4 - x5 - x28 - x29 - x35 >= -5.0
+ r178 - x12 - x13 - x14 - x28 - x29 - x35 >= -5.0
+ r179 - x20 - x21 - x22 - x28 - x29 - x35 >= -5.0
+ r180 - x1 - x2 - x6 - x11 - x15 - x23 >= -5.0
+ r181 - x1 - x3 - x6 - x12 - x15 - x30 >= -5.0
+ r182 - x2 - x3 - x6 - x20 - x23 - x30 >= -5.0
+ r183 - x11 - x12 - x15 - x20 - x23 - x30 >= -5.0
+ r184 - x1 - x4 - x6 - x13 - x15 - x36 >= -5.0
+ r185 - x2 - x4 - x6 - x21 - x23 - x36 >= -5.0
+ r186 - x11 - x13 - x15 - x21 - x23 - x36 >= -5.0
+ r187 - x3 - x4 - x6 - x28 - x30 - x36 >= -5.0
+ r188 - x12 - x13 - x15 - x28 - x30 - x36 >= -5.0
+ r189 - x20 - x21 - x23 - x28 - x30 - x36 >= -5.0
+ r190 - x1 - x5 - x6 - x14 - x15 - x41 >= -5.0
+ r191 - x2 - x5 - x6 - x22 - x23 - x41 >= -5.0
+ r192 - x11 - x14 - x15 - x22 - x23 - x41 >= -5.0
+ r193 - x3 - x5 - x6 - x29 - x30 - x41 >= -5.0
+ r194 - x12 - x14 - x15 - x29 - x30 - x41 >= -5.0
+ r195 - x20 - x22 - x23 - x29 - x30 - x41 >= -5.0
+ r196 - x4 - x5 - x6 - x35 - x36 - x41 >= -5.0
+ r197 - x13 - x14 - x15 - x35 - x36 - x41 >= -5.0
+ r198 - x21 - x22 - x23 - x35 - x36 - x41 >= -5.0
+ r199 - x28 - x29 - x30 - x35 - x36 - x41 >= -5.0
+ r200 - x1 - x2 - x7 - x11 - x16 - x24 >= -5.0
+ r201 - x1 - x3 - x7 - x12 - x16 - x31 >= -5.0
+ r202 - x2 - x3 - x7 - x20 - x24 - x31 >= -5.0
+ r203 - x11 - x12 - x16 - x20 - x24 - x31 >= -5.0
+ r204 - x1 - x4 - x7 - x13 - x16 - x37 >= -5.0
+ r205 - x2 - x4 - x7 - x21 - x24 - x37 >= -5.0
+ r206 - x11 - x13 - x16 - x21 - x24 - x37 >= -5.0
+ r207 - x3 - x4 - x7 - x28 - x31 - x37 >= -5.0
+ r208 - x12 - x13 - x16 - x28 - x31 - x37 >= -5.0
+ r209 - x20 - x21 - x24 - x28 - x31 - x37 >= -5.0
+ r210 - x1 - x5 - x7 - x14 - x16 - x42 >= -5.0
+ r211 - x2 - x5 - x7 - x22 - x24 - x42 >= -5.0
+ r212 - x11 - x14 - x16 - x22 - x24 - x42 >= -5.0
+ r213 - x3 - x5 - x7 - x29 - x31 - x42 >= -5.0
+ r214 - x12 - x14 - x16 - x29 - x31 - x42 >= -5.0
+ r215 - x20 - x22 - x24 - x29 - x31 - x42 >= -5.0
+ r216 - x4 - x5 - x7 - x35 - x37 - x42 >= -5.0
+ r217 - x13 - x14 - x16 - x35 - x37 - x42 >= -5.0
+ r218 - x21 - x22 - x24 - x35 - x37 - x42 >= -5.0
+ r219 - x28 - x29 - x31 - x35 - x37 - x42 >= -5.0
+ r220 - x1 - x6 - x7 - x15 - x16 - x46 >= -5.0
+ r221 - x2 - x6 - x7 - x23 - x24 - x46 >= -5.0
+ r222 - x11 - x15 - x16 - x23 - x24 - x46 >= -5.0
+ r223 - x3 - x6 - x7 - x30 - x31 - x46 >= -5.0
+ r224 - x12 - x15 - x16 - x30 - x31 - x46 >= -5.0
+ r225 - x20 - x23 - x24 - x30 - x31 - x46 >= -5.0
+ r226 - x4 - x6 - x7 - x36 - x37 - x46 >= -5.0
+ r227 - x13 - x15 - x16 - x36 - x37 - x46 >= -5.0
+ r228 - x21 - x23 - x24 - x36 - x37 - x46 >= -5.0
+ r229 - x28 - x30 - x31 - x36 - x37 - x46 >= -5.0
+ r230 - x5 - x6 - x7 - x41 - x42 - x46 >= -5.0
+ r231 - x14 - x15 - x16 - x41 - x42 - x46 >= -5.0
+ r232 - x22 - x23 - x24 - x41 - x42 - x46 >= -5.0
+ r233 - x29 - x30 - x31 - x41 - x42 - x46 >= -5.0
+ r234 - x35 - x36 - x37 - x41 - x42 - x46 >= -5.0
+ r235 - x1 - x2 - x8 - x11 - x17 - x25 >= -5.0
+ r236 - x1 - x3 - x8 - x12 - x17 - x32 >= -5.0
+ r237 - x2 - x3 - x8 - x20 - x25 - x32 >= -5.0
+ r238 - x11 - x12 - x17 - x20 - x25 - x32 >= -5.0
+ r239 - x1 - x4 - x8 - x13 - x17 - x38 >= -5.0
+ r240 - x2 - x4 - x8 - x21 - x25 - x38 >= -5.0
+ r241 - x11 - x13 - x17 - x21 - x25 - x38 >= -5.0
+ r242 - x3 - x4 - x8 - x28 - x32 - x38 >= -5.0
+ r243 - x12 - x13 - x17 - x28 - x32 - x38 >= -5.0
+ r244 - x20 - x21 - x25 - x28 - x32 - x38 >= -5.0
+ r245 - x1 - x5 - x8 - x14 - x17 - x43 >= -5.0
+ r246 - x2 - x5 - x8 - x22 - x25 - x43 >= -5.0
+ r247 - x11 - x14 - x17 - x22 - x25 - x43 >= -5.0
+ r248 - x3 - x5 - x8 - x29 - x32 - x43 >= -5.0
+ r249 - x12 - x14 - x17 - x29 - x32 - x43 >= -5.0
+ r250 - x20 - x22 - x25 - x29 - x32 - x43 >= -5.0
+ r251 - x4 - x5 - x8 - x35 - x38 - x43 >= -5.0
+ r252 - x13 - x14 - x17 - x35 - x38 - x43 >= -5.0
+ r253 - x21 - x22 - x25 - x35 - x38 - x43 >= -5.0
+ r254 - x28 - x29 - x32 - x35 - x38 - x43 >= -5.0
+ r255 - x1 - x6 - x8 - x15 - x17 - x47 >= -5.0
+ r256 - x2 - x6 - x8 - x23 - x25 - x47 >= -5.0
+ r257 - x11 - x15 - x17 - x23 - x25 - x47 >= -5.0
+ r258 - x3 - x6 - x8 - x30 - x32 - x47 >= -5.0
+ r259 - x12 - x15 - x17 - x30 - x32 - x47 >= -5.0
+ r260 - x20 - x23 - x25 - x30 - x32 - x47 >= -5.0
+ r261 - x4 - x6 - x8 - x36 - x38 - x47 >= -5.0
+ r262 - x13 - x15 - x17 - x36 - x38 - x47 >= -5.0
+ r263 - x21 - x23 - x25 - x36 - x38 - x47 >= -5.0
+ r264 - x28 - x30 - x32 - x36 - x38 - x47 >= -5.0
+ r265 - x5 - x6 - x8 - x41 - x43 - x47 >= -5.0
+ r266 - x14 - x15 - x17 - x41 - x43 - x47 >= -5.0
+ r267 - x22 - x23 - x25 - x41 - x43 - x47 >= -5.0
+ r268 - x29 - x30 - x32 - x41 - x43 - x47 >= -5.0
+ r269 - x35 - x36 - x38 - x41 - x43 - x47 >= -5.0
+ r270 - x1 - x7 - x8 - x16 - x17 - x50 >= -5.0
+ r271 - x2 - x7 - x8 - x24 - x25 - x50 >= -5.0
+ r272 - x11 - x16 - x17 - x24 - x25 - x50 >= -5.0
+ r273 - x3 - x7 - x8 - x31 - x32 - x50 >= -5.0
+ r274 - x12 - x16 - x17 - x31 - x32 - x50 >= -5.0
+ r275 - x20 - x24 - x25 - x31 - x32 - x50 >= -5.0
+ r276 - x4 - x7 - x8 - x37 - x38 - x50 >= -5.0
+ r277 - x13 - x16 - x17 - x37 - x38 - x50 >= -5.0
+ r278 - x21 - x24 - x25 - x37 - x38 - x50 >= -5.0
+ r279 - x28 - x31 - x32 - x37 - x38 - x50 >= -5.0
+ r280 - x5 - x7 - x8 - x42 - x43 - x50 >= -5.0
+ r281 - x14 - x16 - x17 - x42 - x43 - x50 >= -5.0
+ r282 - x22 - x24 - x25 - x42 - x43 - x50 >= -5.0
+ r283 - x29 - x31 - x32 - x42 - x43 - x50 >= -5.0
+ r284 - x35 - x37 - x38 - x42 - x43 - x50 >= -5.0
+ r285 - x6 - x7 - x8 - x46 - x47 - x50 >= -5.0
+ r286 - x15 - x16 - x17 - x46 - x47 - x50 >= -5.0
+ r287 - x23 - x24 - x25 - x46 - x47 - x50 >= -5.0
+ r288 - x30 - x31 - x32 - x46 - x47 - x50 >= -5.0
+ r289 - x36 - x37 - x38 - x46 - x47 - x50 >= -5.0
+ r290 - x41 - x42 - x43 - x46 - x47 - x50 >= -5.0
+ r291 - x1 - x2 - x9 - x11 - x18 - x26 >= -5.0
+ r292 - x1 - x3 - x9 - x12 - x18 - x33 >= -5.0
+ r293 - x2 - x3 - x9 - x20 - x26 - x33 >= -5.0
+ r294 - x11 - x12 - x18 - x20 - x26 - x33 >= -5.0
+ r295 - x1 - x4 - x9 - x13 - x18 - x39 >= -5.0
+ r296 - x2 - x4 - x9 - x21 - x26 - x39 >= -5.0
+ r297 - x11 - x13 - x18 - x21 - x26 - x39 >= -5.0
+ r298 - x3 - x4 - x9 - x28 - x33 - x39 >= -5.0
+ r299 - x12 - x13 - x18 - x28 - x33 - x39 >= -5.0
+ r300 - x20 - x21 - x26 - x28 - x33 - x39 >= -5.0
+ r301 - x1 - x5 - x9 - x14 - x18 - x44 >= -5.0
+ r302 - x2 - x5 - x9 - x22 - x26 - x44 >= -5.0
+ r303 - x11 - x14 - x18 - x22 - x26 - x44 >= -5.0
+ r304 - x3 - x5 - x9 - x29 - x33 - x44 >= -5.0
+ r305 - x12 - x14 - x18 - x29 - x33 - x44 >= -5.0
+ r306 - x20 - x22 - x26 - x29 - x33 - x44 >= -5.0
+ r307 - x4 - x5 - x9 - x35 - x39 - x44 >= -5.0
+ r308 - x13 - x14 - x18 - x35 - x39 - x44 >= -5.0
+ r309 - x21 - x22 - x26 - x35 - x39 - x44 >= -5.0
+ r310 - x28 - x29 - x33 - x35 - x39 - x44 >= -5.0
+ r311 - x1 - x6 - x9 - x15 - x18 - x48 >= -5.0
+ r312 - x2 - x6 - x9 - x23 - x26 - x48 >= -5.0
+ r313 - x11 - x15 - x18 - x23 - x26 - x48 >= -5.0
+ r314 - x3 - x6 - x9 - x30 - x33 - x48 >= -5.0
+ r315 - x12 - x15 - x18 - x30 - x33 - x48 >= -5.0
+ r316 - x20 - x23 - x26 - x30 - x33 - x48 >= -5.0
+ r317 - x4 - x6 - x9 - x36 - x39 - x48 >= -5.0
+ r318 - x13 - x15 - x18 - x36 - x39 - x48 >= -5.0
+ r319 - x21 - x23 - x26 - x36 - x39 - x48 >= -5.0
+ r320 - x28 - x30 - x33 - x36 - x39 - x48 >= -5.0
+ r321 - x5 - x6 - x9 - x41 - x44 - x48 >= -5.0
+ r322 - x14 - x15 - x18 - x41 - x44 - x48 >= -5.0
+ r323 - x22 - x23 - x26 - x41 - x44 - x48 >= -5.0
+ r324 - x29 - x30 - x33 - x41 - x44 - x48 >= -5.0
+ r325 - x35 - x36 - x39 - x41 - x44 - x48 >= -5.0
+ r326 - x1 - x7 - x9 - x16 - x18 - x51 >= -5.0
+ r327 - x2 - x7 - x9 - x24 - x26 - x51 >= -5.0
+ r328 - x11 - x16 - x18 - x24 - x26 - x51 >= -5.0
+ r329 - x3 - x7 - x9 - x31 - x33 - x51 >= -5.0
+ r330 - x12 - x16 - x18 - x31 - x33 - x51 >= -5.0
+ r331 - x20 - x24 - x26 - x31 - x33 - x51 >= -5.0
+ r332 - x4 - x7 - x9 - x37 - x39 - x51 >= -5.0
+ r333 - x13 - x16 - x18 - x37 - x39 - x51 >= -5.0
+ r334 - x21 - x24 - x26 - x37 - x39 - x51 >= -5.0
+ r335 - x28 - x31 - x33 - x37 - x39 - x51 >= -5.0
+ r336 - x5 - x7 - x9 - x42 - x44 - x51 >= -5.0
+ r337 - x14 - x16 - x18 - x42 - x44 - x51 >= -5.0
+ r338 - x22 - x24 - x26 - x42 - x44 - x51 >= -5.0
+ r339 - x29 - x31 - x33 - x42 - x44 - x51 >= -5.0
+ r340 - x35 - x37 - x39 - x42 - x44 - x51 >= -5.0
+ r341 - x6 - x7 - x9 - x46 - x48 - x51 >= -5.0
+ r342 - x15 - x16 - x18 - x46 - x48 - x51 >= -5.0
+ r343 - x23 - x24 - x26 - x46 - x48 - x51 >= -5.0
+ r344 - x30 - x31 - x33 - x46 - x48 - x51 >= -5.0
+ r345 - x36 - x37 - x39 - x46 - x48 - x51 >= -5.0
+ r346 - x41 - x42 - x44 - x46 - x48 - x51 >= -5.0
+ r347 - x1 - x8 - x9 - x17 - x18 - x53 >= -5.0
+ r348 - x2 - x8 - x9 - x25 - x26 - x53 >= -5.0
+ r349 - x11 - x17 - x18 - x25 - x26 - x53 >= -5.0
+ r350 - x3 - x8 - x9 - x32 - x33 - x53 >= -5.0
+ r351 - x12 - x17 - x18 - x32 - x33 - x53 >= -5.0
+ r352 - x20 - x25 - x26 - x32 - x33 - x53 >= -5.0
+ r353 - x4 - x8 - x9 - x38 - x39 - x53 >= -5.0
+ r354 - x13 - x17 - x18 - x38 - x39 - x53 >= -5.0
+ r355 - x21 - x25 - x26 - x38 - x39 - x53 >= -5.0
+ r356 - x28 - x32 - x33 - x38 - x39 - x53 >= -5.0
+ r357 - x5 - x8 - x9 - x43 - x44 - x53 >= -5.0
+ r358 - x14 - x17 - x18 - x43 - x44 - x53 >= -5.0
+ r359 - x22 - x25 - x26 - x43 - x44 - x53 >= -5.0
+ r360 - x29 - x32 - x33 - x43 - x44 - x53 >= -5.0
+ r361 - x35 - x38 - x39 - x43 - x44 - x53 >= -5.0
+ r362 - x6 - x8 - x9 - x47 - x48 - x53 >= -5.0
+ r363 - x15 - x17 - x18 - x47 - x48 - x53 >= -5.0
+ r364 - x23 - x25 - x26 - x47 - x48 - x53 >= -5.0
+ r365 - x30 - x32 - x33 - x47 - x48 - x53 >= -5.0
+ r366 - x36 - x38 - x39 - x47 - x48 - x53 >= -5.0
+ r367 - x41 - x43 - x44 - x47 - x48 - x53 >= -5.0
+ r368 - x7 - x8 - x9 - x50 - x51 - x53 >= -5.0
+ r369 - x16 - x17 - x18 - x50 - x51 - x53 >= -5.0
+ r370 - x24 - x25 - x26 - x50 - x51 - x53 >= -5.0
+ r371 - x31 - x32 - x33 - x50 - x51 - x53 >= -5.0
+ r372 - x37 - x38 - x39 - x50 - x51 - x53 >= -5.0
+ r373 - x42 - x43 - x44 - x50 - x51 - x53 >= -5.0
+ r374 - x46 - x47 - x48 - x50 - x51 - x53 >= -5.0
+ r375 - x1 - x2 - x10 - x11 - x19 - x27 >= -5.0
+ r376 - x1 - x3 - x10 - x12 - x19 - x34 >= -5.0
+ r377 - x2 - x3 - x10 - x20 - x27 - x34 >= -5.0
+ r378 - x11 - x12 - x19 - x20 - x27 - x34 >= -5.0
+ r379 - x1 - x4 - x10 - x13 - x19 - x40 >= -5.0
+ r380 - x2 - x4 - x10 - x21 - x27 - x40 >= -5.0
+ r381 - x11 - x13 - x19 - x21 - x27 - x40 >= -5.0
+ r382 - x3 - x4 - x10 - x28 - x34 - x40 >= -5.0
+ r383 - x12 - x13 - x19 - x28 - x34 - x40 >= -5.0
+ r384 - x20 - x21 - x27 - x28 - x34 - x40 >= -5.0
+ r385 - x1 - x5 - x10 - x14 - x19 - x45 >= -5.0
+ r386 - x2 - x5 - x10 - x22 - x27 - x45 >= -5.0
+ r387 - x11 - x14 - x19 - x22 - x27 - x45 >= -5.0
+ r388 - x3 - x5 - x10 - x29 - x34 - x45 >= -5.0
+ r389 - x12 - x14 - x19 - x29 - x34 - x45 >= -5.0
+ r390 - x20 - x22 - x27 - x29 - x34 - x45 >= -5.0
+ r391 - x4 - x5 - x10 - x35 - x40 - x45 >= -5.0
+ r392 - x13 - x14 - x19 - x35 - x40 - x45 >= -5.0
+ r393 - x21 - x22 - x27 - x35 - x40 - x45 >= -5.0
+ r394 - x28 - x29 - x34 - x35 - x40 - x45 >= -5.0
+ r395 - x1 - x6 - x10 - x15 - x19 - x49 >= -5.0
+ r396 - x2 - x6 - x10 - x23 - x27 - x49 >= -5.0
+ r397 - x11 - x15 - x19 - x23 - x27 - x49 >= -5.0
+ r398 - x3 - x6 - x10 - x30 - x34 - x49 >= -5.0
+ r399 - x12 - x15 - x19 - x30 - x34 - x49 >= -5.0
+ r400 - x20 - x23 - x27 - x30 - x34 - x49 >= -5.0
+ r401 - x4 - x6 - x10 - x36 - x40 - x49 >= -5.0
+ r402 - x13 - x15 - x19 - x36 - x40 - x49 >= -5.0
+ r403 - x21 - x23 - x27 - x36 - x40 - x49 >= -5.0
+ r404 - x28 - x30 - x34 - x36 - x40 - x49 >= -5.0
+ r405 - x5 - x6 - x10 - x41 - x45 - x49 >= -5.0
+ r406 - x14 - x15 - x19 - x41 - x45 - x49 >= -5.0
+ r407 - x22 - x23 - x27 - x41 - x45 - x49 >= -5.0
+ r408 - x29 - x30 - x34 - x41 - x45 - x49 >= -5.0
+ r409 - x35 - x36 - x40 - x41 - x45 - x49 >= -5.0
+ r410 - x1 - x7 - x10 - x16 - x19 - x52 >= -5.0
+ r411 - x2 - x7 - x10 - x24 - x27 - x52 >= -5.0
+ r412 - x11 - x16 - x19 - x24 - x27 - x52 >= -5.0
+ r413 - x3 - x7 - x10 - x31 - x34 - x52 >= -5.0
+ r414 - x12 - x16 - x19 - x31 - x34 - x52 >= -5.0
+ r415 - x20 - x24 - x27 - x31 - x34 - x52 >= -5.0
+ r416 - x4 - x7 - x10 - x37 - x40 - x52 >= -5.0
+ r417 - x13 - x16 - x19 - x37 - x40 - x52 >= -5.0
+ r418 - x21 - x24 - x27 - x37 - x40 - x52 >= -5.0
+ r419 - x28 - x31 - x34 - x37 - x40 - x52 >= -5.0
+ r420 - x5 - x7 - x10 - x42 - x45 - x52 >= -5.0
+ r421 - x14 - x16 - x19 - x42 - x45 - x52 >= -5.0
+ r422 - x22 - x24 - x27 - x42 - x45 - x52 >= -5.0
+ r423 - x29 - x31 - x34 - x42 - x45 - x52 >= -5.0
+ r424 - x35 - x37 - x40 - x42 - x45 - x52 >= -5.0
+ r425 - x6 - x7 - x10 - x46 - x49 - x52 >= -5.0
+ r426 - x15 - x16 - x19 - x46 - x49 - x52 >= -5.0
+ r427 - x23 - x24 - x27 - x46 - x49 - x52 >= -5.0
+ r428 - x30 - x31 - x34 - x46 - x49 - x52 >= -5.0
+ r429 - x36 - x37 - x40 - x46 - x49 - x52 >= -5.0
+ r430 - x41 - x42 - x45 - x46 - x49 - x52 >= -5.0
+ r431 - x1 - x8 - x10 - x17 - x19 - x54 >= -5.0
+ r432 - x2 - x8 - x10 - x25 - x27 - x54 >= -5.0
+ r433 - x11 - x17 - x19 - x25 - x27 - x54 >= -5.0
+ r434 - x3 - x8 - x10 - x32 - x34 - x54 >= -5.0
+ r435 - x12 - x17 - x19 - x32 - x34 - x54 >= -5.0
+ r436 - x20 - x25 - x27 - x32 - x34 - x54 >= -5.0
+ r437 - x4 - x8 - x10 - x38 - x40 - x54 >= -5.0
+ r438 - x13 - x17 - x19 - x38 - x40 - x54 >= -5.0
+ r439 - x21 - x25 - x27 - x38 - x40 - x54 >= -5.0
+ r440 - x28 - x32 - x34 - x38 - x40 - x54 >= -5.0
+ r441 - x5 - x8 - x10 - x43 - x45 - x54 >= -5.0
+ r442 - x14 - x17 - x19 - x43 - x45 - x54 >= -5.0
+ r443 - x22 - x25 - x27 - x43 - x45 - x54 >= -5.0
+ r444 - x29 - x32 - x34 - x43 - x45 - x54 >= -5.0
+ r445 - x35 - x38 - x40 - x43 - x45 - x54 >= -5.0
+ r446 - x6 - x8 - x10 - x47 - x49 - x54 >= -5.0
+ r447 - x15 - x17 - x19 - x47 - x49 - x54 >= -5.0
+ r448 - x23 - x25 - x27 - x47 - x49 - x54 >= -5.0
+ r449 - x30 - x32 - x34 - x47 - x49 - x54 >= -5.0
+ r450 - x36 - x38 - x40 - x47 - x49 - x54 >= -5.0
+ r451 - x41 - x43 - x45 - x47 - x49 - x54 >= -5.0
+ r452 - x7 - x8 - x10 - x50 - x52 - x54 >= -5.0
+ r453 - x16 - x17 - x19 - x50 - x52 - x54 >= -5.0
+ r454 - x24 - x25 - x27 - x50 - x52 - x54 >= -5.0
+ r455 - x31 - x32 - x34 - x50 - x52 - x54 >= -5.0
+ r456 - x37 - x38 - x40 - x50 - x52 - x54 >= -5.0
+ r457 - x42 - x43 - x45 - x50 - x52 - x54 >= -5.0
+ r458 - x46 - x47 - x49 - x50 - x52 - x54 >= -5.0
+ r459 - x1 - x9 - x10 - x18 - x19 - x55 >= -5.0
+ r460 - x2 - x9 - x10 - x26 - x27 - x55 >= -5.0
+ r461 - x11 - x18 - x19 - x26 - x27 - x55 >= -5.0
+ r462 - x3 - x9 - x10 - x33 - x34 - x55 >= -5.0
+ r463 - x12 - x18 - x19 - x33 - x34 - x55 >= -5.0
+ r464 - x20 - x26 - x27 - x33 - x34 - x55 >= -5.0
+ r465 - x4 - x9 - x10 - x39 - x40 - x55 >= -5.0
+ r466 - x13 - x18 - x19 - x39 - x40 - x55 >= -5.0
+ r467 - x21 - x26 - x27 - x39 - x40 - x55 >= -5.0
+ r468 - x28 - x33 - x34 - x39 - x40 - x55 >= -5.0
+ r469 - x5 - x9 - x10 - x44 - x45 - x55 >= -5.0
+ r470 - x14 - x18 - x19 - x44 - x45 - x55 >= -5.0
+ r471 - x22 - x26 - x27 - x44 - x45 - x55 >= -5.0
+ r472 - x29 - x33 - x34 - x44 - x45 - x55 >= -5.0
+ r473 - x35 - x39 - x40 - x44 - x45 - x55 >= -5.0
+ r474 - x6 - x9 - x10 - x48 - x49 - x55 >= -5.0
+ r475 - x15 - x18 - x19 - x48 - x49 - x55 >= -5.0
+ r476 - x23 - x26 - x27 - x48 - x49 - x55 >= -5.0
+ r477 - x30 - x33 - x34 - x48 - x49 - x55 >= -5.0
+ r478 - x36 - x39 - x40 - x48 - x49 - x55 >= -5.0
+ r479 - x41 - x44 - x45 - x48 - x49 - x55 >= -5.0
+ r480 - x7 - x9 - x10 - x51 - x52 - x55 >= -5.0
+ r481 - x16 - x18 - x19 - x51 - x52 - x55 >= -5.0
+ r482 - x24 - x26 - x27 - x51 - x52 - x55 >= -5.0
+ r483 - x31 - x33 - x34 - x51 - x52 - x55 >= -5.0
+ r484 - x37 - x39 - x40 - x51 - x52 - x55 >= -5.0
+ r485 - x42 - x44 - x45 - x51 - x52 - x55 >= -5.0
+ r486 - x46 - x48 - x49 - x51 - x52 - x55 >= -5.0
+ r487 - x8 - x9 - x10 - x53 - x54 - x55 >= -5.0
+ r488 - x17 - x18 - x19 - x53 - x54 - x55 >= -5.0
+ r489 - x25 - x26 - x27 - x53 - x54 - x55 >= -5.0
+ r490 - x32 - x33 - x34 - x53 - x54 - x55 >= -5.0
+ r491 - x38 - x39 - x40 - x53 - x54 - x55 >= -5.0
+ r492 - x43 - x44 - x45 - x53 - x54 - x55 >= -5.0
+ r493 - x47 - x48 - x49 - x53 - x54 - x55 >= -5.0
+ r494 - x50 - x51 - x52 - x53 - x54 - x55 >= -5.0
BOUNDS
BINARIES
r0 r1 r10 r100 r101 r102 r103 r104 r105 r106 r107 r108 r109 r11 r110 r111 r112
r113 r114 r115 r116 r117 r118 r119 r12 r120 r121 r122 r123 r124 r125 r126 r127
r128 r129 r13 r130 r131 r132 r133 r134 r135 r136 r137 r138 r139 r14 r140 r141
r142 r143 r144 r145 r146 r147 r148 r149 r15 r150 r151 r152 r153 r154 r155 r156
r157 r158 r159 r16 r160 r161 r162 r163 r164 r165 r166 r167 r168 r169 r17 r170
r171 r172 r173 r174 r175 r176 r177 r178 r179 r18 r180 r181 r182 r183 r184 r185
r186 r187 r188 r189 r19 r190 r191 r192 r193 r194 r195 r196 r197 r198 r199 r2 r20
r200 r201 r202 r203 r204 r205 r206 r207 r208 r209 r21 r210 r211 r212 r213 r214
r215 r216 r217 r218 r219 r22 r220 r221 r222 r223 r224 r225 r226 r227 r228 r229
r23 r230 r231 r232 r233 r234 r235 r236 r237 r238 r239 r24 r240 r241 r242 r243
r244 r245 r246 r247 r248 r249 r25 r250 r251 r252 r253 r254 r255 r256 r257 r258
r259 r26 r260 r261 r262 r263 r264 r265 r266 r267 r268 r269 r27 r270 r271 r272
r273 r274 r275 r276 r277 r278 r279 r28 r280 r281 r282 r283 r284 r285 r286 r287
r288 r289 r29 r290 r291 r292 r293 r294 r295 r296 r297 r298 r299 r3 r30 r300 r301
r302 r303 r304 r305 r306 r307 r308 r309 r31 r310 r311 r312 r313 r314 r315 r316
r317 r318 r319 r32 r320 r321 r322 r323 r324 r325 r326 r327 r328 r329 r33 r330
r331 r332 r333 r334 r335 r336 r337 r338 r339 r34 r340 r341 r342 r343 r344 r345
r346 r347 r348 r349 r35 r350 r351 r352 r353 r354 r355 r356 r357 r358 r359 r36
r360 r361 r362 r363 r364 r365 r366 r367 r368 r369 r37 r370 r371 r372 r373 r374
r375 r376 r377 r378 r379 r38 r380 r381 r382 r383 r384 r385 r386 r387 r388 r389
r39 r390 r391 r392 r393 r394 r395 r396 r397 r398 r399 r4 r40 r400 r401 r402 r403
r404 r405 r406 r407 r408 r409 r41 r410 r411 r412 r413 r414 r415 r416 r417 r418
r419 r42 r420 r421 r422 r423 r424 r425 r426 r427 r428 r429 r43 r430 r431 r432
r433 r434 r435 r436 r437 r438 r439 r44 r440 r441 r442 r443 r444 r445 r446 r447
r448 r449 r45 r450 r451 r452 r453 r454 r455 r456 r457 r458 r459 r46 r460 r461
r462 r463 r464 r465 r466 r467 r468 r469 r47 r470 r471 r472 r473 r474 r475 r476
r477 r478 r479 r48 r480 r481 r482 r483 r484 r485 r486 r487 r488 r489 r49 r490
r491 r492 r493 r494 r5 r50 r51 r52 r53 r54 r55 r56 r57 r58 r59 r6 r60 r61 r62
r63 r64 r65 r66 r67 r68 r69 r7 r70 r71 r72 r73 r74 r75 r76 r77 r78 r79 r8 r80
r81 r82 r83 r84 r85 r86 r87 r88 r89 r9 r90 r91 r92 r93 r94 r95 r96 r97 r98 r99
x1 x10 x11 x12 x13 x14 x15 x16 x17 x18 x19 x2 x20 x21 x22 x23 x24 x25 x26 x27
x28 x29 x3 x30 x31 x32 x33 x34 x35 x36 x37 x38 x39 x4 x40 x41 x42 x43 x44 x45
x46 x47 x48 x49 x5 x50 x51 x52 x53 x54 x55 x6 x7 x8 x9
END
